100
128
34
11
45
33
38
34
24
63
5
44
36
14
37
41
20
16
10
3
62
4
1
23
23
9
15
7
2
32
8
52
38
51
39
12
5
64
36
10
28
23
20
36
22
63
41
35
35
64
16
17
48
41
20
15
58
6
29
15
42
15
31
47
58
40
21
20
64
16
58
20
64
64
55
48
49
48
24
59
32
51
34
43
64
64
1
50
34
44
61
27
40
57
57
36
33
33
62
50
46
32